Maximize
  0.0157197446279239 Z_377_4_0 + 0.00824301468398504 Z_377_4_1
   + 0.0956769276743898 Z_377_4_2 + 0.00761560148658112 Z_377_4_3
   + 0.7727447115271201 Z_377_4_4 + 0.4386429679829959 Z_377_5_0
   + 0.1829418715791299 Z_377_5_1 + 0.00324548765276608 Z_377_5_2
   + 0.0146221521706803 Z_377_5_3 + 0.2605475206144278 Z_377_5_4
   + 9.75288e-05 Z_377_1_0 + 0.00114695251218803 Z_377_1_1
   + 0.6296005330262096 Z_377_1_2 + 0.000417663 Z_377_1_3
   + 0.2687373226803578 Z_377_1_4 + 0.4386429679829959 Z_377_2_0
   + 0.1829418715791299 Z_377_2_1 + 0.00324548765276608 Z_377_2_2
   + 0.0146221521706803 Z_377_2_3 + 0.2605475206144278 Z_377_2_4
   + 9.75288e-05 Z_377_0_0 + 0.00114695251218803 Z_377_0_1
   + 0.6296005330262096 Z_377_0_2 + 0.000417663 Z_377_0_3
   + 0.2687373226803578 Z_377_0_4 + 0.00347357618420063 Z_615_2_0
   + 0.00709715453325925 Z_615_2_1 + 0.00400303862262669 Z_615_2_2
   + 0.00349715774886814 Z_615_2_3 + 0.8819290729110454 Z_615_2_4
   + 0.00176734736567145 Z_615_4_0 + 0.0144182080077112 Z_615_4_1
   + 0.0745491211878434 Z_615_4_2 + 0.00749296617677832 Z_615_4_3
   + 0.8017723572619957 Z_615_4_4 + 0.00729401286628909 Z_615_3_0
   + 0.0165262619822962 Z_615_3_1 + 0.013995328539902 Z_615_3_2
   + 0.00786088727336872 Z_615_3_3 + 0.8543235093381439 Z_615_3_4
   + 0.00577797040352443 Z_615_1_0 + 0.0107227147140873 Z_615_1_1
   + 0.0118870099296445 Z_615_1_2 + 0.00791058966545977 Z_615_1_3
   + 0.8637017152872841 Z_615_1_4 + 0.00176734736567145 Z_615_5_0
   + 0.0144182080077112 Z_615_5_1 + 0.0745491211878434 Z_615_5_2
   + 0.00749296617677832 Z_615_5_3 + 0.8017723572619957 Z_615_5_4 + [
   0.1511680814252839 Z_377_1_0 * Z_615_2_0
   + 0.0356427631494397 Z_377_1_0 * Z_615_3_0
   + 0.0250655169660481 Z_377_1_0 * Z_615_5_0
   + 0.1511680814252839 Z_377_1_1 * Z_615_2_1
   + 0.0356427631494397 Z_377_1_1 * Z_615_3_1
   + 0.0250655169660481 Z_377_1_1 * Z_615_5_1
   + 0.1511680814252839 Z_377_1_2 * Z_615_2_2
   + 0.0356427631494397 Z_377_1_2 * Z_615_3_2
   + 0.0250655169660481 Z_377_1_2 * Z_615_5_2
   + 0.1511680814252839 Z_377_1_3 * Z_615_2_3
   + 0.0356427631494397 Z_377_1_3 * Z_615_3_3
   + 0.0250655169660481 Z_377_1_3 * Z_615_5_3
   + 0.1511680814252839 Z_377_1_4 * Z_615_2_4
   + 0.0356427631494397 Z_377_1_4 * Z_615_3_4
   + 0.0250655169660481 Z_377_1_4 * Z_615_5_4
   + 0.0055354376469068 Z_377_2_0 * Z_615_3_0
   + 0.0250655169660481 Z_377_2_0 * Z_615_5_0
   + 0.0055354376469068 Z_377_2_1 * Z_615_3_1
   + 0.0250655169660481 Z_377_2_1 * Z_615_5_1
   + 0.0055354376469068 Z_377_2_2 * Z_615_3_2
   + 0.0250655169660481 Z_377_2_2 * Z_615_5_2
   + 0.0055354376469068 Z_377_2_3 * Z_615_3_3
   + 0.0250655169660481 Z_377_2_3 * Z_615_5_3
   + 0.0055354376469068 Z_377_2_4 * Z_615_3_4
   + 0.0250655169660481 Z_377_2_4 * Z_615_5_4 ] / 2 
Subject To
 constraint1_3774: Z_377_4_0 + Z_377_4_1 + Z_377_4_2 + Z_377_4_3
   + Z_377_4_4 <= 1
 constraint1_3775: Z_377_5_0 + Z_377_5_1 + Z_377_5_2 + Z_377_5_3
   + Z_377_5_4 <= 1
 constraint1_3771: Z_377_1_0 + Z_377_1_1 + Z_377_1_2 + Z_377_1_3
   + Z_377_1_4 <= 1
 constraint1_3772: Z_377_2_0 + Z_377_2_1 + Z_377_2_2 + Z_377_2_3
   + Z_377_2_4 <= 1
 constraint1_3770: Z_377_0_0 + Z_377_0_1 + Z_377_0_2 + Z_377_0_3
   + Z_377_0_4 <= 1
 constraint1_6152: Z_615_2_0 + Z_615_2_1 + Z_615_2_2 + Z_615_2_3
   + Z_615_2_4 <= 1
 constraint1_6154: Z_615_4_0 + Z_615_4_1 + Z_615_4_2 + Z_615_4_3
   + Z_615_4_4 <= 1
 constraint1_6153: Z_615_3_0 + Z_615_3_1 + Z_615_3_2 + Z_615_3_3
   + Z_615_3_4 <= 1
 constraint1_6151: Z_615_1_0 + Z_615_1_1 + Z_615_1_2 + Z_615_1_3
   + Z_615_1_4 <= 1
 constraint1_6155: Z_615_5_0 + Z_615_5_1 + Z_615_5_2 + Z_615_5_3
   + Z_615_5_4 <= 1
 constraint2_5310: <= 1
 constraint2_5311: <= 1
 constraint2_5312: <= 1
 constraint2_5313: <= 1
 constraint2_3770: Z_377_4_0 + Z_377_5_0 + Z_377_1_0 + Z_377_2_0
   + Z_377_0_0 <= 1
 constraint2_3771: Z_377_4_1 + Z_377_5_1 + Z_377_1_1 + Z_377_2_1
   + Z_377_0_1 <= 1
 constraint2_3772: Z_377_4_2 + Z_377_5_2 + Z_377_1_2 + Z_377_2_2
   + Z_377_0_2 <= 1
 constraint2_3773: Z_377_4_3 + Z_377_5_3 + Z_377_1_3 + Z_377_2_3
   + Z_377_0_3 <= 1
 constraint2_6150: Z_615_2_0 + Z_615_4_0 + Z_615_3_0 + Z_615_1_0
   + Z_615_5_0 <= 1
 constraint2_6151: Z_615_2_1 + Z_615_4_1 + Z_615_3_1 + Z_615_1_1
   + Z_615_5_1 <= 1
 constraint2_6152: Z_615_2_2 + Z_615_4_2 + Z_615_3_2 + Z_615_1_2
   + Z_615_5_2 <= 1
 constraint2_6153: Z_615_2_3 + Z_615_4_3 + Z_615_3_3 + Z_615_1_3
   + Z_615_5_3 <= 1
 constraint2_2350: <= 1
 constraint2_2351: <= 1
 constraint2_2352: <= 1
 constraint2_2353: <= 1
 constraint2_1690: <= 1
 constraint2_1691: <= 1
 constraint2_1692: <= 1
 constraint2_1693: <= 1
 constraint2_4710: <= 1
 constraint2_4711: <= 1
 constraint2_4712: <= 1
 constraint2_4713: <= 1
Bounds
Binaries
 Z_377_4_0 Z_377_4_1 Z_377_4_2 Z_377_4_3 Z_377_4_4 Z_377_5_0 Z_377_5_1
 Z_377_5_2 Z_377_5_3 Z_377_5_4 Z_377_1_0 Z_377_1_1 Z_377_1_2 Z_377_1_3
 Z_377_1_4 Z_377_2_0 Z_377_2_1 Z_377_2_2 Z_377_2_3 Z_377_2_4 Z_377_0_0
 Z_377_0_1 Z_377_0_2 Z_377_0_3 Z_377_0_4 Z_615_2_0 Z_615_2_1 Z_615_2_2
 Z_615_2_3 Z_615_2_4 Z_615_4_0 Z_615_4_1 Z_615_4_2 Z_615_4_3 Z_615_4_4
 Z_615_3_0 Z_615_3_1 Z_615_3_2 Z_615_3_3 Z_615_3_4 Z_615_1_0 Z_615_1_1
 Z_615_1_2 Z_615_1_3 Z_615_1_4 Z_615_5_0 Z_615_5_1 Z_615_5_2 Z_615_5_3
 Z_615_5_4
End
